3537853408621390457506,12,1,2,01,10,1,2,03,6,1,2,012,6,1,2,015,3,1,2,015,5,1,2,01,3,1,2,06,7,1,2,09,10,1,2,02,1,1,2,04,14,1,2,01,4,1,2,09,6,1,2,01,8,1,2,08,2,1,2,014,10,1,2,01,14,1,2,01,9,1,2,06,14,1,2,013,14,1,2,010,3,1,2,011,15,1,2,08,4,1,2,08,10,1,2,01,13,1,2,08,12,1,2,04,13,1,2,03,2,1,2,06,11,1,2,02,13,1,2,010,12,1,2,013,10,1,2,04,1,1,2,010,11,1,2,011,2,1,2,09,3,1,2,07,1,1,2,05,1,1,2,012,9,1,2,08,6,1,2,04,7,1,2,014,6,1,2,011,8,1,2,014,1,1,2,06,6,1,2,09,12,1,2,010,9,1,2,013,4,1,2,08,9,1,2,015,12,1,2,0